\* Set_covering *\
Minimize
OBJ: location_A + location_B + location_C + location_D
Subject To
_C1: location_A >= 1
_C10: 0.1 location_B >= 1
_C11: location_C >= 1
_C12: location_C >= 1
_C13: location_C >= 1
_C14: 0.1 location_C >= 1
_C15: 0.1 location_C >= 1
_C16: location_D >= 1
_C17: location_D >= 1
_C18: location_D >= 1
_C19: location_D >= 1
_C2: 0.1 location_A >= 1
_C20: location_D >= 1
_C3: 0.1 location_A >= 1
_C4: 0.1 location_A >= 1
_C5: location_A >= 1
_C6: location_B >= 1
_C7: location_B >= 1
_C8: location_B >= 1
_C9: location_B >= 1
Binaries
location_A
location_B
location_C
location_D
End
